(set-logic QF_S)
(declare-fun V39 () String )
(declare-fun V4 () String )
(declare-fun V61 () String )
(declare-fun V38 () String )
(declare-fun V26 () String )
(declare-fun V35 () String )
(declare-fun V50 () String )
(declare-fun V17 () String )
(declare-fun V91 () String )
(declare-fun V13 () String )
(declare-fun V66 () String )
(declare-fun V77 () String )
(declare-fun V20 () String )
(declare-fun V112 () String )
(declare-fun V109 () String )
(declare-fun V123 () String )
(declare-fun V83 () String )
(declare-fun V70 () String )
(declare-fun V23 () String )
(declare-fun V117 () String )
(declare-fun V119 () String )
(declare-fun V94 () String )
(declare-fun V72 () String )
(declare-fun V102 () String )
(declare-fun V105 () String )
(declare-fun V95 () String )
(declare-fun V55 () String )
(declare-fun V81 () String )
(declare-fun V52 () String )
(declare-fun V11 () String )
(declare-fun V107 () String )
(declare-fun V57 () String )
(declare-fun V41 () String )
(declare-fun V5 () String )
(declare-fun V100 () String )
(declare-fun V69 () String )
(declare-fun V122 () String )
(declare-fun V29 () String )
(declare-fun V25 () String )
(declare-fun V96 () String )
(declare-fun V129 () String )
(declare-fun V90 () String )
(declare-fun V47 () String )
(declare-fun V85 () String )
(declare-fun V27 () String )
(declare-fun V7 () String )
(declare-fun V64 () String )
(declare-fun V110 () String )
(declare-fun V106 () String )
(declare-fun V118 () String )
(declare-fun V101 () String )
(declare-fun V42 () String )
(declare-fun V114 () String )
(declare-fun V116 () String )
(declare-fun V76 () String )
(declare-fun V14 () String )
(declare-fun V121 () String )
(declare-fun V51 () String )
(declare-fun V19 () String )
(declare-fun V99 () String )
(declare-fun V71 () String )
(declare-fun V53 () String )
(declare-fun V56 () String )
(declare-fun V127 () String )
(declare-fun V93 () String )
(declare-fun V16 () String )
(declare-fun V78 () String )
(declare-fun V9 () String )
(declare-fun V84 () String )
(declare-fun V92 () String )
(declare-fun V124 () String )
(declare-fun V88 () String )
(declare-fun V45 () String )
(declare-fun V82 () String )
(declare-fun V63 () String )
(declare-fun V21 () String )
(declare-fun V36 () String )
(declare-fun V113 () String )
(declare-fun V79 () String )
(declare-fun V54 () String )
(declare-fun V68 () String )
(declare-fun V111 () String )
(declare-fun V18 () String )
(declare-fun V43 () String )
(declare-fun V3 () String )
(declare-fun V28 () String )
(declare-fun V97 () String )
(declare-fun V8 () String )
(declare-fun V60 () String )
(declare-fun V10 () String )
(declare-fun V49 () String )
(declare-fun V126 () String )
(declare-fun V30 () String )
(declare-fun V15 () String )
(declare-fun V80 () String )
(declare-fun V128 () String )
(declare-fun V65 () String )
(declare-fun V74 () String )
(declare-fun V58 () String )
(declare-fun V44 () String )
(declare-fun V98 () String )
(declare-fun V59 () String )
(declare-fun V34 () String )
(declare-fun V31 () String )
(declare-fun V120 () String )
(declare-fun V62 () String )
(declare-fun V24 () String )
(declare-fun V104 () String )
(declare-fun V108 () String )
(declare-fun V75 () String )
(declare-fun V48 () String )
(declare-fun V1 () String )
(declare-fun V22 () String )
(declare-fun V12 () String )
(declare-fun V125 () String )
(declare-fun V6 () String )
(declare-fun V103 () String )
(declare-fun V37 () String )
(declare-fun V40 () String )
(declare-fun V0 () String )
(declare-fun V89 () String )
(declare-fun V67 () String )
(declare-fun V2 () String )
(declare-fun V32 () String )
(declare-fun V86 () String )
(declare-fun V33 () String )
(declare-fun V46 () String )
(declare-fun V87 () String )
(declare-fun V115 () String )
(declare-fun V73 () String )
(assert (= "" "Q" ) )
(assert (= "" "X" ) )
(assert (= "" V59 ) )
(assert (= "" V33 ) )
(assert (= ":" V21 ) )
(assert (= "A" V0 ) )
(assert (= "F" V16 ) )
(assert (= "G" V14 ) )
(assert (= "H" V12 ) )
(assert (= "I" V19 ) )
(assert (= "Q" V20 ) )
(assert (= "U" V17 ) )
(assert (= "V" V13 ) )
(assert (= "X" V15 ) )
(assert (= "Y" V18 ) )
(assert (= "Z" V5 ) )
(assert (= V101 V41 ) )
(assert (= V6 (str.++ (str.++ V120 "z" ) V121 ) ) )
(assert (= V44 (str.++ (str.++ V120 "Z" ) V121 ) ) )
(assert (= V2 (str.++ (str.++ V102 "A" ) V103 ) ) )
(assert (= V43 (str.++ (str.++ V102 "a" ) V103 ) ) )
(assert (= V81 V79 ) )
(assert (= V81 V77 ) )
(assert (= V29 V50 ) )
(assert (= V29 V52 ) )
(assert (= V29 V54 ) )
(assert (= V57 (str.++ (str.++ V108 "F" ) V109 ) ) )
(assert (= V61 (str.++ (str.++ V86 "G" ) V87 ) ) )
(assert (= V65 (str.++ (str.++ V117 "H" ) V118 ) ) )
(assert (= V49 V51 ) )
(assert (= V49 V53 ) )
(assert (= V49 V97 ) )
(assert (= V55 (str.++ (str.++ V98 "U" ) V99 ) ) )
(assert (= V63 (str.++ (str.++ V89 "V" ) V90 ) ) )
(assert (= V59 V92 ) )
(assert (= V51 V114 ) )
(assert (= V53 V111 ) )
(assert (= V82 V80 ) )
(assert (= V82 V78 ) )
(assert (= V110 (str.++ (str.++ V108 "f" ) V109 ) ) )
(assert (= V88 (str.++ (str.++ V86 "g" ) V87 ) ) )
(assert (= V119 (str.++ (str.++ V117 "h" ) V118 ) ) )
(assert (= V100 (str.++ (str.++ V98 "u" ) V99 ) ) )
(assert (= V91 (str.++ (str.++ V89 "v" ) V90 ) ) )
(assert (= V30 V9 ) )
(assert (= V4 (str.++ (str.++ V24 V25 ) V26 ) ) )
(assert (= V4 (str.++ (str.++ V32 V33 ) V34 ) ) )
(assert (= V4 (str.++ (str.++ V35 "A" ) V36 ) ) )
(assert (= V4 (str.++ (str.++ V1 V2 ) V3 ) ) )
(assert (= V11 (str.++ (str.++ V126 "A" ) V127 ) ) )
(assert (= V11 (str.++ (str.++ V85 V31 ) V23 ) ) )
(assert (= V11 (str.++ (str.++ V8 V9 ) V10 ) ) )
(assert (= V11 (str.++ (str.++ V22 V4 ) V23 ) ) )
(assert (= V11 (str.++ (str.++ V38 "://" ) V39 ) ) )
(assert (= V11 (str.++ "mongodb://" V37 ) ) )
(assert (= (str.++ V6 V7 ) "localhost" ) )
(assert (= (str.++ V43 V25 ) (str.++ (str.++ V106 "Z" ) V107 ) ) )
(assert (= (str.++ V43 V25 ) (str.++ (str.++ V40 V41 ) V42 ) ) )
(assert (= (str.++ V43 V25 ) (str.++ (str.++ V40 V44 ) V45 ) ) )
(assert (= (str.++ V43 V25 ) (str.++ (str.++ V83 V84 ) V47 ) ) )
(assert (= (str.++ V43 V25 ) (str.++ (str.++ V46 V7 ) V47 ) ) )
(assert (= (str.++ V81 V82 ) (str.++ V79 V80 ) ) )
(assert (= (str.++ V81 V82 ) (str.++ V77 V78 ) ) )
(assert (= (str.++ V49 V50 ) (str.++ V51 V52 ) ) )
(assert (= (str.++ V49 V50 ) (str.++ V53 V54 ) ) )
(assert (= (str.++ V82 V29 ) (str.++ V80 V29 ) ) )
(assert (= (str.++ V82 V29 ) (str.++ V78 V29 ) ) )
(assert (= (str.++ V97 V82 ) (str.++ V114 V80 ) ) )
(assert (= (str.++ V97 V82 ) (str.++ V111 V78 ) ) )
(assert (= (str.++ V30 V31 ) (str.++ (str.++ V124 "F" ) V125 ) ) )
(assert (= (str.++ V30 V31 ) (str.++ (str.++ V93 "G" ) V94 ) ) )
(assert (= (str.++ V30 V31 ) (str.++ (str.++ V104 "H" ) V105 ) ) )
(assert (= (str.++ V30 V31 ) (str.++ (str.++ V95 "I" ) V96 ) ) )
(assert (= (str.++ V30 V31 ) (str.++ (str.++ V122 "U" ) V123 ) ) )
(assert (= (str.++ V30 V31 ) (str.++ (str.++ V128 "V" ) V129 ) ) )
(assert (= (str.++ V30 V31 ) (str.++ (str.++ V115 "Y" ) V116 ) ) )
(assert (= (str.++ V30 V31 ) (str.++ (str.++ V112 "Z" ) V113 ) ) )
(assert (= (str.++ V30 V31 ) (str.++ (str.++ V73 V74 ) V29 ) ) )
(assert (= (str.++ V30 V31 ) (str.++ (str.++ V69 V70 ) V29 ) ) )
(assert (= (str.++ V30 V31 ) (str.++ (str.++ V27 V28 ) V29 ) ) )
(assert (= (str.++ V30 V31 ) (str.++ (str.++ V81 V82 ) V29 ) ) )
(assert (= (str.++ V30 V31 ) (str.++ (str.++ V75 V76 ) V29 ) ) )
(assert (= (str.++ V30 V31 ) (str.++ (str.++ V67 V68 ) V29 ) ) )
(assert (= (str.++ V30 V31 ) (str.++ (str.++ V71 V72 ) V29 ) ) )
(assert (= (str.++ V30 V31 ) (str.++ (str.++ V79 V80 ) V29 ) ) )
(assert (= (str.++ V30 V31 ) (str.++ (str.++ V77 V78 ) V29 ) ) )
(assert (= (str.++ V30 V31 ) (str.++ (str.++ V48 V57 ) V58 ) ) )
(assert (= (str.++ V30 V31 ) (str.++ (str.++ V48 V61 ) V62 ) ) )
(assert (= (str.++ V30 V31 ) (str.++ (str.++ V48 V65 ) V66 ) ) )
(assert (= (str.++ V30 V31 ) (str.++ (str.++ V48 V49 ) V50 ) ) )
(assert (= (str.++ V30 V31 ) (str.++ (str.++ V48 V55 ) V56 ) ) )
(assert (= (str.++ V30 V31 ) (str.++ (str.++ V48 V63 ) V64 ) ) )
(assert (= (str.++ V30 V31 ) (str.++ (str.++ V48 V59 ) V60 ) ) )
(assert (= (str.++ V30 V31 ) (str.++ (str.++ V48 V51 ) V52 ) ) )
(assert (= (str.++ V30 V31 ) (str.++ (str.++ V48 V53 ) V54 ) ) )
( check-sat )
